p cnf 964 2475
51 -2 -1 0
-51 2 0
-51 1 0
52 -51 -3 0
-52 51 0
-52 3 0
53 -5 -4 0
-53 5 0
-53 4 0
54 -53 -6 0
-54 53 0
-54 6 0
55 -697 -698 0
-55 697 0
-55 698 0
56 -8 -699 0
-56 8 0
-56 699 0
57 -56 -700 0
-57 56 0
-57 700 0
58 -701 -55 0
-58 701 0
-58 55 0
59 -702 -4 0
-59 702 0
-59 4 0
60 -59 -11 0
-60 59 0
-60 11 0
61 -703 -58 0
-61 703 0
-61 58 0
62 -13 -704 0
-62 13 0
-62 704 0
63 -62 -705 0
-63 62 0
-63 705 0
64 -706 -61 0
-64 706 0
-64 61 0
65 -15 -705 0
-65 15 0
-65 705 0
66 -65 -707 0
-66 65 0
-66 707 0
67 -708 -64 0
-67 708 0
-67 64 0
68 -709 -5 0
-68 709 0
-68 5 0
69 -68 -3 0
-69 68 0
-69 3 0
70 -710 -67 0
-70 710 0
-70 67 0
71 -711 -17 0
-71 711 0
-71 17 0
72 -71 -712 0
-72 71 0
-72 712 0
73 -713 -70 0
-73 713 0
-73 70 0
74 -714 -715 0
-74 714 0
-74 715 0
75 -74 -716 0
-75 74 0
-75 716 0
76 -717 -73 0
-76 717 0
-76 73 0
77 -23 -705 0
-77 23 0
-77 705 0
78 -77 -718 0
-78 77 0
-78 718 0
79 -719 -76 0
-79 719 0
-79 76 0
80 -720 -4 0
-80 720 0
-80 4 0
81 -80 -20 0
-81 80 0
-81 20 0
82 -721 -79 0
-82 721 0
-82 79 0
83 -25 -722 0
-83 25 0
-83 722 0
84 -83 -6 0
-84 83 0
-84 6 0
85 -723 -82 0
-85 723 0
-85 82 0
86 -17 -14 0
-86 17 0
-86 14 0
87 -86 -724 0
-87 86 0
-87 724 0
88 -725 -85 0
-88 725 0
-88 85 0
89 -726 -727 0
-89 726 0
-89 727 0
90 -89 -8 0
-90 89 0
-90 8 0
91 -728 -88 0
-91 728 0
-91 88 0
92 -24 -18 0
-92 24 0
-92 18 0
93 -92 -27 0
-93 92 0
-93 27 0
94 -729 -91 0
-94 729 0
-94 91 0
95 -730 -10 0
-95 730 0
-95 10 0
96 -95 -731 0
-96 95 0
-96 731 0
97 -732 -94 0
-97 732 0
-97 94 0
98 -31 -733 0
-98 31 0
-98 733 0
99 -98 -32 0
-99 98 0
-99 32 0
100 -734 -97 0
-100 734 0
-100 97 0
101 -34 -33 0
-101 34 0
-101 33 0
102 -101 -9 0
-102 101 0
-102 9 0
103 -735 -100 0
-103 735 0
-103 100 0
104 -35 -736 0
-104 35 0
-104 736 0
105 -104 -731 0
-105 104 0
-105 731 0
106 -737 -103 0
-106 737 0
-106 103 0
107 -27 -738 0
-107 27 0
-107 738 0
108 -107 -709 0
-108 107 0
-108 709 0
109 -739 -106 0
-109 739 0
-109 106 0
110 -36 -704 0
-110 36 0
-110 704 0
111 -110 -37 0
-111 110 0
-111 37 0
112 -740 -109 0
-112 740 0
-112 109 0
113 -10 -736 0
-113 10 0
-113 736 0
114 -113 -17 0
-114 113 0
-114 17 0
115 -741 -112 0
-115 741 0
-115 112 0
116 -742 -705 0
-116 742 0
-116 705 0
117 -116 -26 0
-117 116 0
-117 26 0
118 -743 -115 0
-118 743 0
-118 115 0
119 -15 -11 0
-119 15 0
-119 11 0
120 -119 -709 0
-120 119 0
-120 709 0
121 -744 -118 0
-121 744 0
-121 118 0
122 -39 -724 0
-122 39 0
-122 724 0
123 -122 -16 0
-123 122 0
-123 16 0
124 -745 -121 0
-124 745 0
-124 121 0
125 -34 -11 0
-125 34 0
-125 11 0
126 -125 -707 0
-126 125 0
-126 707 0
127 -746 -124 0
-127 746 0
-127 124 0
128 -726 -14 0
-128 726 0
-128 14 0
129 -128 -40 0
-129 128 0
-129 40 0
130 -747 -127 0
-130 747 0
-130 127 0
131 -748 -23 0
-131 748 0
-131 23 0
132 -131 -6 0
-132 131 0
-132 6 0
133 -749 -130 0
-133 749 0
-133 130 0
134 -36 -733 0
-134 36 0
-134 733 0
135 -134 -750 0
-135 134 0
-135 750 0
136 -751 -133 0
-136 751 0
-136 133 0
137 -17 -752 0
-137 17 0
-137 752 0
138 -137 -718 0
-138 137 0
-138 718 0
139 -753 -136 0
-139 753 0
-139 136 0
140 -754 -724 0
-140 754 0
-140 724 0
141 -140 -707 0
-141 140 0
-141 707 0
142 -755 -139 0
-142 755 0
-142 139 0
143 -756 -727 0
-143 756 0
-143 727 0
144 -143 -757 0
-144 143 0
-144 757 0
145 -758 -142 0
-145 758 0
-145 142 0
146 -759 -10 0
-146 759 0
-146 10 0
147 -146 -714 0
-147 146 0
-147 714 0
148 -760 -145 0
-148 760 0
-148 145 0
149 -727 -761 0
-149 727 0
-149 761 0
150 -149 -762 0
-150 149 0
-150 762 0
151 -763 -148 0
-151 763 0
-151 148 0
152 -759 -733 0
-152 759 0
-152 733 0
153 -152 -764 0
-153 152 0
-153 764 0
154 -765 -151 0
-154 765 0
-154 151 0
155 -766 -31 0
-155 766 0
-155 31 0
156 -155 -704 0
-156 155 0
-156 704 0
157 -767 -154 0
-157 767 0
-157 154 0
158 -45 -30 0
-158 45 0
-158 30 0
159 -158 -768 0
-159 158 0
-159 768 0
160 -769 -157 0
-160 769 0
-160 157 0
161 -757 -770 0
-161 757 0
-161 770 0
162 -161 -46 0
-162 161 0
-162 46 0
163 -771 -160 0
-163 771 0
-163 160 0
164 -21 -15 0
-164 21 0
-164 15 0
165 -164 -750 0
-165 164 0
-165 750 0
166 -772 -163 0
-166 772 0
-166 163 0
167 -35 -773 0
-167 35 0
-167 773 0
168 -167 -726 0
-168 167 0
-168 726 0
169 -774 -166 0
-169 774 0
-169 166 0
170 -41 -8 0
-170 41 0
-170 8 0
171 -170 -731 0
-171 170 0
-171 731 0
172 -775 -169 0
-172 775 0
-172 169 0
173 -31 -776 0
-173 31 0
-173 776 0
174 -173 -742 0
-174 173 0
-174 742 0
175 -777 -172 0
-175 777 0
-175 172 0
176 -730 -11 0
-176 730 0
-176 11 0
177 -176 -32 0
-177 176 0
-177 32 0
178 -778 -175 0
-178 778 0
-178 175 0
179 -768 -779 0
-179 768 0
-179 779 0
180 -179 -47 0
-180 179 0
-180 47 0
181 -780 -178 0
-181 780 0
-181 178 0
182 -45 -4 0
-182 45 0
-182 4 0
183 -182 -750 0
-183 182 0
-183 750 0
184 -781 -181 0
-184 781 0
-184 181 0
185 -722 -738 0
-185 722 0
-185 738 0
186 -185 -26 0
-186 185 0
-186 26 0
187 -782 -184 0
-187 782 0
-187 184 0
188 -770 -11 0
-188 770 0
-188 11 0
189 -188 -22 0
-189 188 0
-189 22 0
190 -783 -187 0
-190 783 0
-190 187 0
191 -24 -10 0
-191 24 0
-191 10 0
192 -191 -45 0
-192 191 0
-192 45 0
193 -784 -190 0
-193 784 0
-193 190 0
194 -770 -785 0
-194 770 0
-194 785 0
195 -194 -748 0
-195 194 0
-195 748 0
196 -786 -193 0
-196 786 0
-196 193 0
197 -29 -7 0
-197 29 0
-197 7 0
198 -197 -23 0
-198 197 0
-198 23 0
199 -787 -196 0
-199 787 0
-199 196 0
200 -712 -736 0
-200 712 0
-200 736 0
201 -200 -709 0
-201 200 0
-201 709 0
202 -788 -199 0
-202 788 0
-202 199 0
203 -789 -43 0
-203 789 0
-203 43 0
204 -203 -26 0
-204 203 0
-204 26 0
205 -790 -202 0
-205 790 0
-205 202 0
206 -791 -41 0
-206 791 0
-206 41 0
207 -206 -718 0
-207 206 0
-207 718 0
208 -792 -205 0
-208 792 0
-208 205 0
209 -699 -752 0
-209 699 0
-209 752 0
210 -209 -47 0
-210 209 0
-210 47 0
211 -793 -208 0
-211 793 0
-211 208 0
212 -742 -761 0
-212 742 0
-212 761 0
213 -212 -41 0
-213 212 0
-213 41 0
214 -794 -211 0
-214 794 0
-214 211 0
215 -31 -759 0
-215 31 0
-215 759 0
216 -215 -28 0
-216 215 0
-216 28 0
217 -795 -214 0
-217 795 0
-217 214 0
218 -796 -15 0
-218 796 0
-218 15 0
219 -218 -726 0
-219 218 0
-219 726 0
220 -797 -217 0
-220 797 0
-220 217 0
221 -182 -25 0
-221 182 0
-221 25 0
222 -798 -220 0
-222 798 0
-222 220 0
223 -796 -10 0
-223 796 0
-223 10 0
224 -223 -768 0
-224 223 0
-224 768 0
225 -799 -222 0
-225 799 0
-225 222 0
226 -44 -39 0
-226 44 0
-226 39 0
227 -226 -25 0
-227 226 0
-227 25 0
228 -800 -225 0
-228 800 0
-228 225 0
229 -750 -29 0
-229 750 0
-229 29 0
230 -229 -6 0
-230 229 0
-230 6 0
231 -801 -228 0
-231 801 0
-231 228 0
232 -31 -7 0
-232 31 0
-232 7 0
233 -232 -742 0
-233 232 0
-233 742 0
234 -802 -231 0
-234 802 0
-234 231 0
235 -756 -773 0
-235 756 0
-235 773 0
236 -235 -789 0
-236 235 0
-236 789 0
237 -803 -234 0
-237 803 0
-237 234 0
238 -44 -30 0
-238 44 0
-238 30 0
239 -238 -764 0
-239 238 0
-239 764 0
240 -804 -237 0
-240 804 0
-240 237 0
241 -756 -1 0
-241 756 0
-241 1 0
242 -241 -41 0
-242 241 0
-242 41 0
243 -805 -240 0
-243 805 0
-243 240 0
244 -5 -752 0
-244 5 0
-244 752 0
245 -244 -32 0
-245 244 0
-245 32 0
246 -806 -243 0
-246 806 0
-246 243 0
247 -39 -10 0
-247 39 0
-247 10 0
248 -247 -714 0
-248 247 0
-248 714 0
249 -807 -246 0
-249 807 0
-249 246 0
250 -19 -736 0
-250 19 0
-250 736 0
251 -250 -43 0
-251 250 0
-251 43 0
252 -808 -249 0
-252 808 0
-252 249 0
253 -730 -759 0
-253 730 0
-253 759 0
254 -253 -6 0
-254 253 0
-254 6 0
255 -809 -252 0
-255 809 0
-255 252 0
256 -810 -4 0
-256 810 0
-256 4 0
257 -256 -791 0
-257 256 0
-257 791 0
258 -811 -255 0
-258 811 0
-258 255 0
259 -24 -810 0
-259 24 0
-259 810 0
260 -259 -49 0
-260 259 0
-260 49 0
261 -812 -258 0
-261 812 0
-261 258 0
262 -20 -702 0
-262 20 0
-262 702 0
263 -262 -43 0
-263 262 0
-263 43 0
264 -813 -261 0
-264 813 0
-264 261 0
265 -35 -733 0
-265 35 0
-265 733 0
266 -265 -731 0
-266 265 0
-266 731 0
267 -814 -264 0
-267 814 0
-267 264 0
268 -11 -8 0
-268 11 0
-268 8 0
269 -268 -26 0
-269 268 0
-269 26 0
270 -815 -267 0
-270 815 0
-270 267 0
271 -48 -27 0
-271 48 0
-271 27 0
272 -271 -768 0
-272 271 0
-272 768 0
273 -816 -270 0
-273 816 0
-273 270 0
274 -36 -736 0
-274 36 0
-274 736 0
275 -274 -705 0
-275 274 0
-275 705 0
276 -817 -273 0
-276 817 0
-276 273 0
277 -36 -31 0
-277 36 0
-277 31 0
278 -277 -34 0
-278 277 0
-278 34 0
279 -818 -276 0
-279 818 0
-279 276 0
280 -819 -36 0
-280 819 0
-280 36 0
281 -280 -820 0
-281 280 0
-281 820 0
282 -821 -279 0
-282 821 0
-282 279 0
283 -18 -10 0
-283 18 0
-283 10 0
284 -283 -16 0
-284 283 0
-284 16 0
285 -822 -282 0
-285 822 0
-285 282 0
286 -20 -15 0
-286 20 0
-286 15 0
287 -286 -34 0
-287 286 0
-287 34 0
288 -823 -285 0
-288 823 0
-288 285 0
289 -824 -4 0
-289 824 0
-289 4 0
290 -289 -820 0
-290 289 0
-290 820 0
291 -825 -288 0
-291 825 0
-291 288 0
292 -748 -30 0
-292 748 0
-292 30 0
293 -292 -46 0
-293 292 0
-293 46 0
294 -826 -291 0
-294 826 0
-294 291 0
295 -34 -20 0
-295 34 0
-295 20 0
296 -295 -30 0
-296 295 0
-296 30 0
297 -827 -294 0
-297 827 0
-297 294 0
298 -40 -750 0
-298 40 0
-298 750 0
299 -298 -6 0
-299 298 0
-299 6 0
300 -828 -297 0
-300 828 0
-300 297 0
301 -711 -702 0
-301 711 0
-301 702 0
302 -301 -16 0
-302 301 0
-302 16 0
303 -829 -300 0
-303 829 0
-303 300 0
304 -50 -704 0
-304 50 0
-304 704 0
305 -304 -757 0
-305 304 0
-305 757 0
306 -830 -303 0
-306 830 0
-306 303 0
307 -742 -715 0
-307 742 0
-307 715 0
308 -307 -46 0
-308 307 0
-308 46 0
309 -831 -306 0
-309 831 0
-309 306 0
310 -791 -832 0
-310 791 0
-310 832 0
311 -310 -46 0
-311 310 0
-311 46 0
312 -833 -309 0
-312 833 0
-312 309 0
313 -44 -31 0
-313 44 0
-313 31 0
314 -313 -716 0
-314 313 0
-314 716 0
315 -834 -312 0
-315 834 0
-315 312 0
316 -759 -736 0
-316 759 0
-316 736 0
317 -316 -707 0
-317 316 0
-317 707 0
318 -835 -315 0
-318 835 0
-318 315 0
319 -766 -730 0
-319 766 0
-319 730 0
320 -319 -750 0
-320 319 0
-320 750 0
321 -836 -318 0
-321 836 0
-321 318 0
322 -33 -8 0
-322 33 0
-322 8 0
323 -322 -34 0
-323 322 0
-323 34 0
324 -837 -321 0
-324 837 0
-324 321 0
325 -19 -18 0
-325 19 0
-325 18 0
326 -325 -41 0
-326 325 0
-326 41 0
327 -838 -324 0
-327 838 0
-327 324 0
328 -711 -13 0
-328 711 0
-328 13 0
329 -328 -33 0
-329 328 0
-329 33 0
330 -839 -327 0
-330 839 0
-330 327 0
331 -773 -776 0
-331 773 0
-331 776 0
332 -331 -34 0
-332 331 0
-332 34 0
333 -840 -330 0
-333 840 0
-333 330 0
334 -779 -8 0
-334 779 0
-334 8 0
335 -334 -820 0
-335 334 0
-335 820 0
336 -841 -333 0
-336 841 0
-336 333 0
337 -832 -1 0
-337 832 0
-337 1 0
338 -337 -705 0
-338 337 0
-338 705 0
339 -842 -336 0
-339 842 0
-339 336 0
340 -45 -711 0
-340 45 0
-340 711 0
341 -340 -47 0
-341 340 0
-341 47 0
342 -843 -339 0
-342 843 0
-342 339 0
343 -29 -738 0
-343 29 0
-343 738 0
344 -343 -709 0
-344 343 0
-344 709 0
345 -844 -342 0
-345 844 0
-345 342 0
346 -50 -2 0
-346 50 0
-346 2 0
347 -346 -768 0
-347 346 0
-347 768 0
348 -845 -345 0
-348 845 0
-348 345 0
349 -49 -714 0
-349 49 0
-349 714 0
350 -349 -731 0
-350 349 0
-350 731 0
351 -846 -348 0
-351 846 0
-351 348 0
352 -759 -720 0
-352 759 0
-352 720 0
353 -352 -41 0
-353 352 0
-353 41 0
354 -847 -351 0
-354 847 0
-354 351 0
355 -756 -733 0
-355 756 0
-355 733 0
356 -355 -712 0
-356 355 0
-356 712 0
357 -848 -354 0
-357 848 0
-357 354 0
358 -39 -702 0
-358 39 0
-358 702 0
359 -358 -30 0
-359 358 0
-359 30 0
360 -849 -357 0
-360 849 0
-360 357 0
361 -25 -699 0
-361 25 0
-361 699 0
362 -361 -16 0
-362 361 0
-362 16 0
363 -850 -360 0
-363 850 0
-363 360 0
364 -31 -23 0
-364 31 0
-364 23 0
365 -364 -700 0
-365 364 0
-365 700 0
366 -851 -363 0
-366 851 0
-366 363 0
367 -779 -15 0
-367 779 0
-367 15 0
368 -367 -2 0
-368 367 0
-368 2 0
369 -852 -366 0
-369 852 0
-369 366 0
370 -776 -752 0
-370 776 0
-370 752 0
371 -370 -707 0
-371 370 0
-371 707 0
372 -853 -369 0
-372 853 0
-372 369 0
373 -18 -15 0
-373 18 0
-373 15 0
374 -373 -49 0
-374 373 0
-374 49 0
375 -854 -372 0
-375 854 0
-375 372 0
376 -810 -12 0
-376 810 0
-376 12 0
377 -376 -764 0
-377 376 0
-377 764 0
378 -855 -375 0
-378 855 0
-378 375 0
379 -810 -700 0
-379 810 0
-379 700 0
380 -379 -707 0
-380 379 0
-380 707 0
381 -856 -378 0
-381 856 0
-381 378 0
382 -857 -712 0
-382 857 0
-382 712 0
383 -382 -820 0
-383 382 0
-383 820 0
384 -858 -381 0
-384 858 0
-384 381 0
385 -766 -17 0
-385 766 0
-385 17 0
386 -385 -48 0
-386 385 0
-386 48 0
387 -859 -384 0
-387 859 0
-387 384 0
388 -41 -750 0
-388 41 0
-388 750 0
389 -388 -43 0
-389 388 0
-389 43 0
390 -860 -387 0
-390 860 0
-390 387 0
391 -33 -714 0
-391 33 0
-391 714 0
392 -391 -47 0
-392 391 0
-392 47 0
393 -861 -390 0
-393 861 0
-393 390 0
394 -819 -715 0
-394 819 0
-394 715 0
395 -394 -752 0
-395 394 0
-395 752 0
396 -862 -393 0
-396 862 0
-396 393 0
397 -756 -20 0
-397 756 0
-397 20 0
398 -397 -34 0
-398 397 0
-398 34 0
399 -863 -396 0
-399 863 0
-399 396 0
400 -819 -24 0
-400 819 0
-400 24 0
401 -400 -768 0
-401 400 0
-401 768 0
402 -864 -399 0
-402 864 0
-402 399 0
403 -5 -832 0
-403 5 0
-403 832 0
404 -403 -26 0
-404 403 0
-404 26 0
405 -865 -402 0
-405 865 0
-405 402 0
406 -791 -773 0
-406 791 0
-406 773 0
407 -406 -820 0
-407 406 0
-407 820 0
408 -866 -405 0
-408 866 0
-408 405 0
409 -759 -716 0
-409 759 0
-409 716 0
410 -409 -40 0
-410 409 0
-410 40 0
411 -867 -408 0
-411 867 0
-411 408 0
412 -36 -762 0
-412 36 0
-412 762 0
413 -412 -789 0
-413 412 0
-413 789 0
414 -868 -411 0
-414 868 0
-414 411 0
415 -37 -720 0
-415 37 0
-415 720 0
416 -415 -789 0
-416 415 0
-416 789 0
417 -869 -414 0
-417 869 0
-417 414 0
418 -41 -19 0
-418 41 0
-418 19 0
419 -418 -718 0
-419 418 0
-419 718 0
420 -870 -417 0
-420 870 0
-420 417 0
421 -29 -776 0
-421 29 0
-421 776 0
422 -421 -820 0
-422 421 0
-422 820 0
423 -871 -420 0
-423 871 0
-423 420 0
424 -699 -2 0
-424 699 0
-424 2 0
425 -424 -789 0
-425 424 0
-425 789 0
426 -872 -423 0
-426 872 0
-426 423 0
427 -766 -5 0
-427 766 0
-427 5 0
428 -427 -718 0
-428 427 0
-428 718 0
429 -873 -426 0
-429 873 0
-429 426 0
430 -36 -28 0
-430 36 0
-430 28 0
431 -430 -716 0
-431 430 0
-431 716 0
432 -874 -429 0
-432 874 0
-432 429 0
433 -15 -709 0
-433 15 0
-433 709 0
434 -433 -46 0
-434 433 0
-434 46 0
435 -875 -432 0
-435 875 0
-435 432 0
436 -18 -17 0
-436 18 0
-436 17 0
437 -436 -752 0
-437 436 0
-437 752 0
438 -876 -435 0
-438 876 0
-438 435 0
439 -727 -15 0
-439 727 0
-439 15 0
440 -439 -20 0
-440 439 0
-440 20 0
441 -877 -438 0
-441 877 0
-441 438 0
442 -29 -704 0
-442 29 0
-442 704 0
443 -442 -48 0
-443 442 0
-443 48 0
444 -878 -441 0
-444 878 0
-444 441 0
445 -789 -727 0
-445 789 0
-445 727 0
446 -445 -718 0
-446 445 0
-446 718 0
447 -879 -444 0
-447 879 0
-447 444 0
448 -730 -810 0
-448 730 0
-448 810 0
449 -448 -46 0
-449 448 0
-449 46 0
450 -880 -447 0
-450 880 0
-450 447 0
451 -32 -27 0
-451 32 0
-451 27 0
452 -451 -43 0
-452 451 0
-452 43 0
453 -881 -450 0
-453 881 0
-453 450 0
454 -36 -13 0
-454 36 0
-454 13 0
455 -454 -21 0
-455 454 0
-455 21 0
456 -882 -453 0
-456 882 0
-456 453 0
457 -819 -31 0
-457 819 0
-457 31 0
458 -457 -42 0
-458 457 0
-458 42 0
459 -883 -456 0
-459 883 0
-459 456 0
460 -23 -18 0
-460 23 0
-460 18 0
461 -460 -733 0
-461 460 0
-461 733 0
462 -884 -459 0
-462 884 0
-462 459 0
463 -29 -28 0
-463 29 0
-463 28 0
464 -463 -41 0
-464 463 0
-464 41 0
465 -885 -462 0
-465 885 0
-465 462 0
466 -22 -4 0
-466 22 0
-466 4 0
467 -466 -47 0
-467 466 0
-467 47 0
468 -886 -465 0
-468 886 0
-468 465 0
469 -704 -752 0
-469 704 0
-469 752 0
470 -469 -46 0
-470 469 0
-470 46 0
471 -887 -468 0
-471 887 0
-471 468 0
472 -39 -12 0
-472 39 0
-472 12 0
473 -472 -748 0
-473 472 0
-473 748 0
474 -888 -471 0
-474 888 0
-474 471 0
475 -454 -770 0
-475 454 0
-475 770 0
476 -889 -474 0
-476 889 0
-476 474 0
477 -727 -810 0
-477 727 0
-477 810 0
478 -477 -715 0
-478 477 0
-478 715 0
479 -890 -476 0
-479 890 0
-479 476 0
480 -44 -4 0
-480 44 0
-480 4 0
481 -480 -3 0
-481 480 0
-481 3 0
482 -891 -479 0
-482 891 0
-482 479 0
483 -785 -773 0
-483 785 0
-483 773 0
484 -483 -48 0
-484 483 0
-484 48 0
485 -892 -482 0
-485 892 0
-485 482 0
486 -50 -12 0
-486 50 0
-486 12 0
487 -486 -726 0
-487 486 0
-487 726 0
488 -893 -485 0
-488 893 0
-488 485 0
489 -730 -1 0
-489 730 0
-489 1 0
490 -489 -714 0
-490 489 0
-490 714 0
491 -894 -488 0
-491 894 0
-491 488 0
492 -819 -704 0
-492 819 0
-492 704 0
493 -492 -748 0
-493 492 0
-493 748 0
494 -895 -491 0
-494 895 0
-494 491 0
495 -712 -733 0
-495 712 0
-495 733 0
496 -495 -46 0
-496 495 0
-496 46 0
497 -896 -494 0
-497 896 0
-497 494 0
498 -14 -5 0
-498 14 0
-498 5 0
499 -498 -714 0
-499 498 0
-499 714 0
500 -897 -497 0
-500 897 0
-500 497 0
501 -42 -13 0
-501 42 0
-501 13 0
502 -501 -47 0
-502 501 0
-502 47 0
503 -898 -500 0
-503 898 0
-503 500 0
504 -49 -759 0
-504 49 0
-504 759 0
505 -504 -40 0
-505 504 0
-505 40 0
506 -899 -503 0
-506 899 0
-506 503 0
507 -754 -730 0
-507 754 0
-507 730 0
508 -507 -3 0
-508 507 0
-508 3 0
509 -900 -506 0
-509 900 0
-509 506 0
510 -49 -35 0
-510 49 0
-510 35 0
511 -510 -6 0
-511 510 0
-511 6 0
512 -901 -509 0
-512 901 0
-512 509 0
513 -80 -47 0
-513 80 0
-513 47 0
514 -902 -512 0
-514 902 0
-514 512 0
515 -756 -23 0
-515 756 0
-515 23 0
516 -515 -6 0
-516 515 0
-516 6 0
517 -903 -514 0
-517 903 0
-517 514 0
518 -49 -705 0
-518 49 0
-518 705 0
519 -518 -726 0
-519 518 0
-519 726 0
520 -904 -517 0
-520 904 0
-520 517 0
521 -759 -3 0
-521 759 0
-521 3 0
522 -521 -16 0
-522 521 0
-522 16 0
523 -905 -520 0
-523 905 0
-523 520 0
524 -779 -31 0
-524 779 0
-524 31 0
525 -524 -40 0
-525 524 0
-525 40 0
526 -906 -523 0
-526 906 0
-526 523 0
527 -33 -31 0
-527 33 0
-527 31 0
528 -527 -731 0
-528 527 0
-528 731 0
529 -907 -526 0
-529 907 0
-529 526 0
530 -39 -759 0
-530 39 0
-530 759 0
531 -530 -796 0
-531 530 0
-531 796 0
532 -908 -529 0
-532 908 0
-532 529 0
533 -134 -820 0
-533 134 0
-533 820 0
534 -909 -532 0
-534 909 0
-534 532 0
535 -38 -727 0
-535 38 0
-535 727 0
536 -535 -22 0
-536 535 0
-536 22 0
537 -910 -534 0
-537 910 0
-537 534 0
538 -42 -8 0
-538 42 0
-538 8 0
539 -538 -6 0
-539 538 0
-539 6 0
540 -911 -537 0
-540 911 0
-540 537 0
541 -50 -36 0
-541 50 0
-541 36 0
542 -541 -23 0
-542 541 0
-542 23 0
543 -912 -540 0
-543 912 0
-543 540 0
544 -857 -761 0
-544 857 0
-544 761 0
545 -544 -43 0
-545 544 0
-545 43 0
546 -913 -543 0
-546 913 0
-546 543 0
547 -39 -756 0
-547 39 0
-547 756 0
548 -547 -40 0
-548 547 0
-548 40 0
549 -914 -546 0
-549 914 0
-549 546 0
550 -791 -27 0
-550 791 0
-550 27 0
551 -550 -9 0
-551 550 0
-551 9 0
552 -915 -549 0
-552 915 0
-552 549 0
553 -731 -714 0
-553 731 0
-553 714 0
554 -553 -718 0
-554 553 0
-554 718 0
555 -916 -552 0
-555 916 0
-555 552 0
556 -714 -711 0
-556 714 0
-556 711 0
557 -556 -49 0
-557 556 0
-557 49 0
558 -917 -555 0
-558 917 0
-558 555 0
559 -21 -736 0
-559 21 0
-559 736 0
560 -559 -16 0
-560 559 0
-560 16 0
561 -918 -558 0
-561 918 0
-561 558 0
562 -28 -24 0
-562 28 0
-562 24 0
563 -562 -32 0
-563 562 0
-563 32 0
564 -919 -561 0
-564 919 0
-564 561 0
565 -50 -29 0
-565 50 0
-565 29 0
566 -565 -718 0
-566 565 0
-566 718 0
567 -920 -564 0
-567 920 0
-567 564 0
568 -325 -796 0
-568 325 0
-568 796 0
569 -921 -567 0
-569 921 0
-569 567 0
570 -29 -20 0
-570 29 0
-570 20 0
571 -570 -764 0
-571 570 0
-571 764 0
572 -922 -569 0
-572 922 0
-572 569 0
573 -36 -730 0
-573 36 0
-573 730 0
574 -573 -715 0
-574 573 0
-574 715 0
575 -923 -572 0
-575 923 0
-575 572 0
576 -857 -17 0
-576 857 0
-576 17 0
577 -576 -41 0
-577 576 0
-577 41 0
578 -924 -575 0
-578 924 0
-578 575 0
579 -770 -773 0
-579 770 0
-579 773 0
580 -579 -768 0
-580 579 0
-580 768 0
581 -925 -578 0
-581 925 0
-581 578 0
582 -34 -733 0
-582 34 0
-582 733 0
583 -582 -9 0
-583 582 0
-583 9 0
584 -926 -581 0
-584 926 0
-584 581 0
585 -766 -773 0
-585 766 0
-585 773 0
586 -585 -718 0
-586 585 0
-586 718 0
587 -927 -584 0
-587 927 0
-587 584 0
588 -515 -19 0
-588 515 0
-588 19 0
589 -928 -587 0
-589 928 0
-589 587 0
590 -38 -832 0
-590 38 0
-590 832 0
591 -590 -32 0
-591 590 0
-591 32 0
592 -929 -589 0
-592 929 0
-592 589 0
593 -13 -702 0
-593 13 0
-593 702 0
594 -593 -32 0
-594 593 0
-594 32 0
595 -930 -592 0
-595 930 0
-595 592 0
596 -773 -27 0
-596 773 0
-596 27 0
597 -596 -26 0
-597 596 0
-597 26 0
598 -931 -595 0
-598 931 0
-598 595 0
599 -32 -773 0
-599 32 0
-599 773 0
600 -599 -43 0
-600 599 0
-600 43 0
601 -932 -598 0
-601 932 0
-601 598 0
602 -796 -730 0
-602 796 0
-602 730 0
603 -602 -700 0
-603 602 0
-603 700 0
604 -933 -601 0
-604 933 0
-604 601 0
605 -742 -5 0
-605 742 0
-605 5 0
606 -605 -34 0
-606 605 0
-606 34 0
607 -934 -604 0
-607 934 0
-607 604 0
608 -36 -2 0
-608 36 0
-608 2 0
609 -608 -41 0
-609 608 0
-609 41 0
610 -935 -607 0
-610 935 0
-610 607 0
611 -714 -705 0
-611 714 0
-611 705 0
612 -611 -752 0
-612 611 0
-612 752 0
613 -936 -610 0
-613 936 0
-613 610 0
614 -702 -761 0
-614 702 0
-614 761 0
615 -614 -720 0
-615 614 0
-615 720 0
616 -937 -613 0
-616 937 0
-616 613 0
617 -593 -791 0
-617 593 0
-617 791 0
618 -938 -616 0
-618 938 0
-618 616 0
619 -727 -699 0
-619 727 0
-619 699 0
620 -619 -757 0
-620 619 0
-620 757 0
621 -939 -618 0
-621 939 0
-621 618 0
622 -857 -736 0
-622 857 0
-622 736 0
623 -622 -16 0
-623 622 0
-623 16 0
624 -940 -621 0
-624 940 0
-624 621 0
625 -48 -759 0
-625 48 0
-625 759 0
626 -625 -716 0
-626 625 0
-626 716 0
627 -941 -624 0
-627 941 0
-627 624 0
628 -35 -761 0
-628 35 0
-628 761 0
629 -628 -33 0
-629 628 0
-629 33 0
630 -942 -627 0
-630 942 0
-630 627 0
631 -824 -756 0
-631 824 0
-631 756 0
632 -631 -714 0
-632 631 0
-632 714 0
633 -943 -630 0
-633 943 0
-633 630 0
634 -13 -5 0
-634 13 0
-634 5 0
635 -634 -45 0
-635 634 0
-635 45 0
636 -944 -633 0
-636 944 0
-636 633 0
637 -731 -709 0
-637 731 0
-637 709 0
638 -637 -3 0
-638 637 0
-638 3 0
639 -945 -636 0
-639 945 0
-639 636 0
640 -28 -762 0
-640 28 0
-640 762 0
641 -640 -48 0
-641 640 0
-641 48 0
642 -946 -639 0
-642 946 0
-642 639 0
643 -23 -711 0
-643 23 0
-643 711 0
644 -643 -42 0
-644 643 0
-644 42 0
645 -947 -642 0
-645 947 0
-645 642 0
646 -762 -776 0
-646 762 0
-646 776 0
647 -646 -37 0
-647 646 0
-647 37 0
648 -948 -645 0
-648 948 0
-648 645 0
649 -714 -17 0
-649 714 0
-649 17 0
650 -649 -785 0
-650 649 0
-650 785 0
651 -949 -648 0
-651 949 0
-651 648 0
652 -766 -736 0
-652 766 0
-652 736 0
653 -652 -730 0
-653 652 0
-653 730 0
654 -950 -651 0
-654 950 0
-654 651 0
655 -22 -15 0
-655 22 0
-655 15 0
656 -655 -707 0
-656 655 0
-656 707 0
657 -951 -654 0
-657 951 0
-657 654 0
658 -45 -35 0
-658 45 0
-658 35 0
659 -658 -731 0
-659 658 0
-659 731 0
660 -952 -657 0
-660 952 0
-660 657 0
661 -819 -699 0
-661 819 0
-661 699 0
662 -661 -714 0
-662 661 0
-662 714 0
663 -953 -660 0
-663 953 0
-663 660 0
664 -762 -7 0
-664 762 0
-664 7 0
665 -664 -752 0
-665 664 0
-665 752 0
666 -954 -663 0
-666 954 0
-666 663 0
667 -29 -761 0
-667 29 0
-667 761 0
668 -667 -832 0
-668 667 0
-668 832 0
669 -955 -666 0
-669 955 0
-669 666 0
670 -41 -18 0
-670 41 0
-670 18 0
671 -670 -752 0
-671 670 0
-671 752 0
672 -956 -669 0
-672 956 0
-672 669 0
673 -35 -705 0
-673 35 0
-673 705 0
674 -673 -754 0
-674 673 0
-674 754 0
675 -957 -672 0
-675 957 0
-675 672 0
676 -39 -28 0
-676 39 0
-676 28 0
677 -676 -11 0
-677 676 0
-677 11 0
678 -958 -675 0
-678 958 0
-678 675 0
679 -39 -19 0
-679 39 0
-679 19 0
680 -679 -30 0
-680 679 0
-680 30 0
681 -959 -678 0
-681 959 0
-681 678 0
682 -736 -4 0
-682 736 0
-682 4 0
683 -682 -731 0
-683 682 0
-683 731 0
684 -960 -681 0
-684 960 0
-684 681 0
685 -25 -12 0
-685 25 0
-685 12 0
686 -685 -9 0
-686 685 0
-686 9 0
687 -961 -684 0
-687 961 0
-687 684 0
688 -27 -720 0
-688 27 0
-688 720 0
689 -688 -716 0
-689 688 0
-689 716 0
690 -962 -687 0
-690 962 0
-690 687 0
691 -712 -705 0
-691 712 0
-691 705 0
692 -691 -857 0
-692 691 0
-692 857 0
693 -963 -690 0
-693 963 0
-693 690 0
694 -699 -5 0
-694 699 0
-694 5 0
695 -694 -9 0
-695 694 0
-695 9 0
696 -964 -693 0
-696 964 0
-696 693 0
-697 -54 0
697 54 0
-698 -52 0
698 52 0
-699 -7 0
699 7 0
-700 -9 0
700 9 0
-701 -57 0
701 57 0
-702 -10 0
702 10 0
-703 -60 0
703 60 0
-704 -12 0
704 12 0
-705 -14 0
705 14 0
-706 -63 0
706 63 0
-707 -16 0
707 16 0
-708 -66 0
708 66 0
-709 -8 0
709 8 0
-710 -69 0
710 69 0
-711 -18 0
711 18 0
-712 -19 0
712 19 0
-713 -72 0
713 72 0
-714 -21 0
714 21 0
-715 -20 0
715 20 0
-716 -22 0
716 22 0
-717 -75 0
717 75 0
-718 -6 0
718 6 0
-719 -78 0
719 78 0
-720 -15 0
720 15 0
-721 -81 0
721 81 0
-722 -24 0
722 24 0
-723 -84 0
723 84 0
-724 -26 0
724 26 0
-725 -87 0
725 87 0
-726 -28 0
726 28 0
-727 -27 0
727 27 0
-728 -90 0
728 90 0
-729 -93 0
729 93 0
-730 -29 0
730 29 0
-731 -30 0
731 30 0
-732 -96 0
732 96 0
-733 -13 0
733 13 0
-734 -99 0
734 99 0
-735 -102 0
735 102 0
-736 -5 0
736 5 0
-737 -105 0
737 105 0
-738 -11 0
738 11 0
-739 -108 0
739 108 0
-740 -111 0
740 111 0
-741 -114 0
741 114 0
-742 -38 0
742 38 0
-743 -117 0
743 117 0
-744 -120 0
744 120 0
-745 -123 0
745 123 0
-746 -126 0
746 126 0
-747 -129 0
747 129 0
-748 -40 0
748 40 0
-749 -132 0
749 132 0
-750 -32 0
750 32 0
-751 -135 0
751 135 0
-752 -3 0
752 3 0
-753 -138 0
753 138 0
-754 -41 0
754 41 0
-755 -141 0
755 141 0
-756 -36 0
756 36 0
-757 -42 0
757 42 0
-758 -144 0
758 144 0
-759 -23 0
759 23 0
-760 -147 0
760 147 0
-761 -1 0
761 1 0
-762 -25 0
762 25 0
-763 -150 0
763 150 0
-764 -43 0
764 43 0
-765 -153 0
765 153 0
-766 -44 0
766 44 0
-767 -156 0
767 156 0
-768 -46 0
768 46 0
-769 -159 0
769 159 0
-770 -34 0
770 34 0
-771 -162 0
771 162 0
-772 -165 0
772 165 0
-773 -31 0
773 31 0
-774 -168 0
774 168 0
-775 -171 0
775 171 0
-776 -4 0
776 4 0
-777 -174 0
777 174 0
-778 -177 0
778 177 0
-779 -35 0
779 35 0
-780 -180 0
780 180 0
-781 -183 0
781 183 0
-782 -186 0
782 186 0
-783 -189 0
783 189 0
-784 -192 0
784 192 0
-785 -33 0
785 33 0
-786 -195 0
786 195 0
-787 -198 0
787 198 0
-788 -201 0
788 201 0
-789 -48 0
789 48 0
-790 -204 0
790 204 0
-791 -45 0
791 45 0
-792 -207 0
792 207 0
-793 -210 0
793 210 0
-794 -213 0
794 213 0
-795 -216 0
795 216 0
-796 -37 0
796 37 0
-797 -219 0
797 219 0
-798 -221 0
798 221 0
-799 -224 0
799 224 0
-800 -227 0
800 227 0
-801 -230 0
801 230 0
-802 -233 0
802 233 0
-803 -236 0
803 236 0
-804 -239 0
804 239 0
-805 -242 0
805 242 0
-806 -245 0
806 245 0
-807 -248 0
807 248 0
-808 -251 0
808 251 0
-809 -254 0
809 254 0
-810 -17 0
810 17 0
-811 -257 0
811 257 0
-812 -260 0
812 260 0
-813 -263 0
813 263 0
-814 -266 0
814 266 0
-815 -269 0
815 269 0
-816 -272 0
816 272 0
-817 -275 0
817 275 0
-818 -278 0
818 278 0
-819 -39 0
819 39 0
-820 -47 0
820 47 0
-821 -281 0
821 281 0
-822 -284 0
822 284 0
-823 -287 0
823 287 0
-824 -50 0
824 50 0
-825 -290 0
825 290 0
-826 -293 0
826 293 0
-827 -296 0
827 296 0
-828 -299 0
828 299 0
-829 -302 0
829 302 0
-830 -305 0
830 305 0
-831 -308 0
831 308 0
-832 -2 0
832 2 0
-833 -311 0
833 311 0
-834 -314 0
834 314 0
-835 -317 0
835 317 0
-836 -320 0
836 320 0
-837 -323 0
837 323 0
-838 -326 0
838 326 0
-839 -329 0
839 329 0
-840 -332 0
840 332 0
-841 -335 0
841 335 0
-842 -338 0
842 338 0
-843 -341 0
843 341 0
-844 -344 0
844 344 0
-845 -347 0
845 347 0
-846 -350 0
846 350 0
-847 -353 0
847 353 0
-848 -356 0
848 356 0
-849 -359 0
849 359 0
-850 -362 0
850 362 0
-851 -365 0
851 365 0
-852 -368 0
852 368 0
-853 -371 0
853 371 0
-854 -374 0
854 374 0
-855 -377 0
855 377 0
-856 -380 0
856 380 0
-857 -49 0
857 49 0
-858 -383 0
858 383 0
-859 -386 0
859 386 0
-860 -389 0
860 389 0
-861 -392 0
861 392 0
-862 -395 0
862 395 0
-863 -398 0
863 398 0
-864 -401 0
864 401 0
-865 -404 0
865 404 0
-866 -407 0
866 407 0
-867 -410 0
867 410 0
-868 -413 0
868 413 0
-869 -416 0
869 416 0
-870 -419 0
870 419 0
-871 -422 0
871 422 0
-872 -425 0
872 425 0
-873 -428 0
873 428 0
-874 -431 0
874 431 0
-875 -434 0
875 434 0
-876 -437 0
876 437 0
-877 -440 0
877 440 0
-878 -443 0
878 443 0
-879 -446 0
879 446 0
-880 -449 0
880 449 0
-881 -452 0
881 452 0
-882 -455 0
882 455 0
-883 -458 0
883 458 0
-884 -461 0
884 461 0
-885 -464 0
885 464 0
-886 -467 0
886 467 0
-887 -470 0
887 470 0
-888 -473 0
888 473 0
-889 -475 0
889 475 0
-890 -478 0
890 478 0
-891 -481 0
891 481 0
-892 -484 0
892 484 0
-893 -487 0
893 487 0
-894 -490 0
894 490 0
-895 -493 0
895 493 0
-896 -496 0
896 496 0
-897 -499 0
897 499 0
-898 -502 0
898 502 0
-899 -505 0
899 505 0
-900 -508 0
900 508 0
-901 -511 0
901 511 0
-902 -513 0
902 513 0
-903 -516 0
903 516 0
-904 -519 0
904 519 0
-905 -522 0
905 522 0
-906 -525 0
906 525 0
-907 -528 0
907 528 0
-908 -531 0
908 531 0
-909 -533 0
909 533 0
-910 -536 0
910 536 0
-911 -539 0
911 539 0
-912 -542 0
912 542 0
-913 -545 0
913 545 0
-914 -548 0
914 548 0
-915 -551 0
915 551 0
-916 -554 0
916 554 0
-917 -557 0
917 557 0
-918 -560 0
918 560 0
-919 -563 0
919 563 0
-920 -566 0
920 566 0
-921 -568 0
921 568 0
-922 -571 0
922 571 0
-923 -574 0
923 574 0
-924 -577 0
924 577 0
-925 -580 0
925 580 0
-926 -583 0
926 583 0
-927 -586 0
927 586 0
-928 -588 0
928 588 0
-929 -591 0
929 591 0
-930 -594 0
930 594 0
-931 -597 0
931 597 0
-932 -600 0
932 600 0
-933 -603 0
933 603 0
-934 -606 0
934 606 0
-935 -609 0
935 609 0
-936 -612 0
936 612 0
-937 -615 0
937 615 0
-938 -617 0
938 617 0
-939 -620 0
939 620 0
-940 -623 0
940 623 0
-941 -626 0
941 626 0
-942 -629 0
942 629 0
-943 -632 0
943 632 0
-944 -635 0
944 635 0
-945 -638 0
945 638 0
-946 -641 0
946 641 0
-947 -644 0
947 644 0
-948 -647 0
948 647 0
-949 -650 0
949 650 0
-950 -653 0
950 653 0
-951 -656 0
951 656 0
-952 -659 0
952 659 0
-953 -662 0
953 662 0
-954 -665 0
954 665 0
-955 -668 0
955 668 0
-956 -671 0
956 671 0
-957 -674 0
957 674 0
-958 -677 0
958 677 0
-959 -680 0
959 680 0
-960 -683 0
960 683 0
-961 -686 0
961 686 0
-962 -689 0
962 689 0
-963 -692 0
963 692 0
-964 -695 0
964 695 0
696 0
